/*********************************************
 * OPL 12.9.0.0 Data
 * Author: Administrator
 * Creation Date: 2019年10月5日 at 下午4:11:18
 *********************************************/
nbJobs =5;
nbStages =2;
nbMach =[0,3,2];
nbWork =[0,2,2];
allMach =[0, 3, 5];
B=10000;
OpDurations = [
[1,1,1,68,89],
[55,57,62,35,35],
[77,85,87,32,41],
[56,60,62,35,37],
[7,8,10,24,28]
];
OpDue = [398,465,598,477,172];

 